
;this file is automatically generated: Fri Jan 03 16:26:56 GMT 2020

;declarations generated

(declare-fun oclExcludes ( Int Int) Bool)
(declare-fun Cardinality ( Int) Int)
(declare-fun obj_06dc3ca4_bf82_46c8_9eb5_083c6d097a65 ( Int) Int)
(declare-fun type_a3a72126_eb5d_428c_8a0b_8847d2560e85_Class13 ( Int) Bool)
(declare-fun oclSelect ( Int Bool) Int)
(declare-fun Enum0 ( Int) Int)
(declare-fun Enum1 ( Int) Int)
(declare-fun Enum2 ( Int) Int)
(declare-fun container_ ( Int) Int)
(declare-fun oclIncludes ( Int Int) Bool)
(declare-fun ObjAt ( Int Int) Int)

;formula(s) generated
(assert (forall ((p Int)) (=> ( type_a3a72126_eb5d_428c_8a0b_8847d2560e85_Class13 p )  (and (>= ( Enum0 ( obj_06dc3ca4_bf82_46c8_9eb5_083c6d097a65 p )  )  0) (<= ( Enum0 ( obj_06dc3ca4_bf82_46c8_9eb5_083c6d097a65 p )  )  4)))))
(assert (! (forall ((v Int)) (=> ( type_a3a72126_eb5d_428c_8a0b_8847d2560e85_Class13 v )  (not (= ( Enum0 ( obj_06dc3ca4_bf82_46c8_9eb5_083c6d097a65 v )  )  2) ))):named l0))
(assert (exists ((o Int)) ( type_a3a72126_eb5d_428c_8a0b_8847d2560e85_Class13 ( obj_06dc3ca4_bf82_46c8_9eb5_083c6d097a65 o )  ) ))

 ;end of formula 